\ENCODING=ISO-8859-1
\Problem name: GMKP - Callable Library

Maximize
 obj: 70 x_1_1 + 31 x_1_2 + 50 x_1_3 + 48 x_1_4 + 98 x_1_5 + 70 x_1_6
      + 59 x_1_7 + 18 x_1_8 + 57 x_1_9 + 24 x_1_10 + 40 x_1_11 + 28 x_1_12
      + 82 x_1_13 + 49 x_1_14 + 54 x_1_15 + 82 x_1_16 + 12 x_1_17 + 85 x_1_18
      + 31 x_1_19 + 41 x_1_20 + 58 x_1_21 + 41 x_1_22 + 19 x_1_23 + 37 x_1_24
      + 19 x_1_25 + 28 x_2_1 + 78 x_2_2 + 61 x_2_3 + 71 x_2_4 + 33 x_2_5
      + 56 x_2_6 + 93 x_2_7 + 49 x_2_8 + 17 x_2_9 + 48 x_2_10 + 35 x_2_11
      + 60 x_2_12 + 58 x_2_13 + 95 x_2_14 + 20 x_2_15 + 55 x_2_16 + 25 x_2_17
      + 11 x_2_18 + 23 x_2_19 + 89 x_2_20 + 16 x_2_21 + 74 x_2_22 + 64 x_2_23
      + 62 x_2_24 + 15 x_2_25
Subject To
 capacity_1:            69 x_1_1 + 90 x_1_2 + 29 x_1_3 + 89 x_1_4 + 17 x_1_5
                        + 55 x_1_6 + 27 x_1_7 + 18 x_1_8 + 20 x_1_9 + 38 x_1_10
                        + 72 x_1_11 + 52 x_1_12 + 82 x_1_13 + 65 x_1_14
                        + 44 x_1_15 + 15 x_1_16 + 66 x_1_17 + 38 x_1_18
                        + 39 x_1_19 + 11 x_1_20 + 76 x_1_21 + 71 x_1_22
                        + 46 x_1_23 + 61 x_1_24 + 100 x_1_25 + 55 y_1_1
                        + 65 y_1_2 + 53 y_1_3 + 87 y_1_4 + 71 y_1_5 <= 356
 capacity_2:            69 x_2_1 + 90 x_2_2 + 29 x_2_3 + 89 x_2_4 + 17 x_2_5
                        + 55 x_2_6 + 27 x_2_7 + 18 x_2_8 + 20 x_2_9 + 38 x_2_10
                        + 72 x_2_11 + 52 x_2_12 + 82 x_2_13 + 65 x_2_14
                        + 44 x_2_15 + 15 x_2_16 + 66 x_2_17 + 38 x_2_18
                        + 39 x_2_19 + 11 x_2_20 + 76 x_2_21 + 71 x_2_22
                        + 46 x_2_23 + 61 x_2_24 + 100 x_2_25 + 55 y_2_1
                        + 65 y_2_2 + 53 y_2_3 + 87 y_2_4 + 71 y_2_5 <= 356
 max_one_bin_x_1:       x_1_1 + x_2_1 <= 1
 max_one_bin_x_2:       x_1_2 + x_2_2 <= 1
 max_one_bin_x_3:       x_1_3 + x_2_3 <= 1
 max_one_bin_x_4:       x_1_4 + x_2_4 <= 1
 max_one_bin_x_5:       x_1_5 + x_2_5 <= 1
 max_one_bin_x_6:       x_1_6 + x_2_6 <= 1
 max_one_bin_x_7:       x_1_7 + x_2_7 <= 1
 max_one_bin_x_8:       x_1_8 + x_2_8 <= 1
 max_one_bin_x_9:       x_1_9 + x_2_9 <= 1
 max_one_bin_x_10:      x_1_10 + x_2_10 <= 1
 max_one_bin_x_11:      x_1_11 + x_2_11 <= 1
 max_one_bin_x_12:      x_1_12 + x_2_12 <= 1
 max_one_bin_x_13:      x_1_13 + x_2_13 <= 1
 max_one_bin_x_14:      x_1_14 + x_2_14 <= 1
 max_one_bin_x_15:      x_1_15 + x_2_15 <= 1
 max_one_bin_x_16:      x_1_16 + x_2_16 <= 1
 max_one_bin_x_17:      x_1_17 + x_2_17 <= 1
 max_one_bin_x_18:      x_1_18 + x_2_18 <= 1
 max_one_bin_x_19:      x_1_19 + x_2_19 <= 1
 max_one_bin_x_20:      x_1_20 + x_2_20 <= 1
 max_one_bin_x_21:      x_1_21 + x_2_21 <= 1
 max_one_bin_x_22:      x_1_22 + x_2_22 <= 1
 max_one_bin_x_23:      x_1_23 + x_2_23 <= 1
 max_one_bin_x_24:      x_1_24 + x_2_24 <= 1
 max_one_bin_x_25:      x_1_25 + x_2_25 <= 1
 max_bk_bin_y_1:        y_1_1 + y_2_1 <= 1
 max_bk_bin_y_2:        y_1_2 + y_2_2 <= 1
 max_bk_bin_y_3:        y_1_3 + y_2_3 <= 1
 max_bk_bin_y_4:        y_1_4 + y_2_4 <= 1
 max_bk_bin_y_5:        y_1_5 + y_2_5 <= 1
 dependent_decision_1:  x_1_1 + x_1_9 + x_1_14 + x_1_18 - 25 y_1_1 <= 0
 dependent_decision_2:  x_1_2 + x_1_6 + x_1_7 + x_1_25 - 25 y_1_2 <= 0
 dependent_decision_3:  x_1_3 + x_1_12 + x_1_13 + x_1_15 - 25 y_1_3 <= 0
 dependent_decision_4:  x_1_4 + x_1_8 + x_1_10 + x_1_11 + x_1_16 + x_1_20
                        + x_1_21 + x_1_22 - 25 y_1_4 <= 0
 dependent_decision_5:  x_1_5 + x_1_17 + x_1_19 + x_1_23 + x_1_24 - 25 y_1_5
                        <= 0
 dependent_decision_6:  x_2_1 + x_2_9 + x_2_14 + x_2_18 - 25 y_2_1 <= 0
 dependent_decision_7:  x_2_2 + x_2_6 + x_2_7 + x_2_25 - 25 y_2_2 <= 0
 dependent_decision_8:  x_2_3 + x_2_12 + x_2_13 + x_2_15 - 25 y_2_3 <= 0
 dependent_decision_9:  x_2_4 + x_2_8 + x_2_10 + x_2_11 + x_2_16 + x_2_20
                        + x_2_21 + x_2_22 - 25 y_2_4 <= 0
 dependent_decision_10: x_2_5 + x_2_17 + x_2_19 + x_2_23 + x_2_24 - 25 y_2_5
                        <= 0
Bounds
 0 <= x_1_1 <= 1
 0 <= x_1_2 <= 1
 0 <= x_1_3 <= 1
 0 <= x_1_4 <= 1
 0 <= x_1_5 <= 1
 0 <= x_1_6 <= 1
 0 <= x_1_7 <= 1
 0 <= x_1_8 <= 1
 0 <= x_1_9 <= 1
 0 <= x_1_10 <= 1
 0 <= x_1_11 <= 1
 0 <= x_1_12 <= 1
 0 <= x_1_13 <= 1
 0 <= x_1_14 <= 1
 0 <= x_1_15 <= 1
 0 <= x_1_16 <= 1
 0 <= x_1_17 <= 1
 0 <= x_1_18 <= 1
 0 <= x_1_19 <= 1
 0 <= x_1_20 <= 1
 0 <= x_1_21 <= 1
 0 <= x_1_22 <= 1
 0 <= x_1_23 <= 1
 0 <= x_1_24 <= 1
 0 <= x_1_25 <= 1
 0 <= x_2_1 <= 1
 0 <= x_2_2 <= 1
 0 <= x_2_3 <= 1
 0 <= x_2_4 <= 1
 0 <= x_2_5 <= 1
 0 <= x_2_6 <= 1
 0 <= x_2_7 <= 1
 0 <= x_2_8 <= 1
 0 <= x_2_9 <= 1
 0 <= x_2_10 <= 1
 0 <= x_2_11 <= 1
 0 <= x_2_12 <= 1
 0 <= x_2_13 <= 1
 0 <= x_2_14 <= 1
 0 <= x_2_15 <= 1
 0 <= x_2_16 <= 1
 0 <= x_2_17 <= 1
 0 <= x_2_18 <= 1
 0 <= x_2_19 <= 1
 0 <= x_2_20 <= 1
 0 <= x_2_21 <= 1
 0 <= x_2_22 <= 1
 0 <= x_2_23 <= 1
 0 <= x_2_24 <= 1
 0 <= x_2_25 <= 1
 0 <= y_1_1 <= 1
 0 <= y_1_2 <= 1
 0 <= y_1_3 <= 1
 0 <= y_1_4 <= 1
 0 <= y_1_5 <= 1
 0 <= y_2_1 <= 1
 0 <= y_2_2 <= 1
 0 <= y_2_3 <= 1
 0 <= y_2_4 <= 1
 0 <= y_2_5 <= 1
Binaries
 x_1_1  x_1_2  x_1_3  x_1_4  x_1_5  x_1_6  x_1_7  x_1_8  x_1_9  x_1_10  x_1_11 
 x_1_12  x_1_13  x_1_14  x_1_15  x_1_16  x_1_17  x_1_18  x_1_19  x_1_20 
 x_1_21  x_1_22  x_1_23  x_1_24  x_1_25  x_2_1  x_2_2  x_2_3  x_2_4  x_2_5 
 x_2_6  x_2_7  x_2_8  x_2_9  x_2_10  x_2_11  x_2_12  x_2_13  x_2_14  x_2_15 
 x_2_16  x_2_17  x_2_18  x_2_19  x_2_20  x_2_21  x_2_22  x_2_23  x_2_24 
 x_2_25  y_1_1  y_1_2  y_1_3  y_1_4  y_1_5  y_2_1  y_2_2  y_2_3  y_2_4  y_2_5 
End
